
Log started (V11.0.0) Sun May 18 19:03:43 2008

Tried aggregator 1 time.
Reduced MIP has 540 rows, 20001 columns, and 40040 nonzeros.
Presolve time =    0.14 sec.
Clique table members: 500.
MIP emphasis: balance optimality and feasibility.
MIP search method: dynamic search.
Parallel mode: none, using 1 thread.
Root relaxation solution time =    1.81 sec.

        Nodes                                         Cuts/
   Node  Left     Objective  IInf  Best Integer     Best Node    ItCnt     Gap

*     0+    0                        55216.0000     1251.9000      931   97.73%
*     0+    0                         1401.0000     1251.9000      931   10.64%
      0     0     1252.8464    75     1401.0000      Fract: 6     1027   10.57%
*     0+    0                         1303.0000     1252.8464     1027    3.85%
      0     0     1261.4548    93     1303.0000   MIRcuts: 11     2081    3.19%
      0     0     1262.0983    86     1303.0000     Covers: 1     2292    3.14%
      0     0     1262.0983    85     1303.0000     Covers: 1     2295    3.14%
      0     0     1262.0983    90     1303.0000     Covers: 2     2316    3.14%
*     0+    0                         1302.0000     1262.0983     2316    3.06%
*     0+    0                         1301.0000     1262.0983     2316    2.99%
      0     2     1262.0983    90     1301.0000     1262.0983     2316    2.99%
    100   101     1263.0000    73     1301.0000     1262.0987     3809    2.99%
    200   201     1263.0000    79     1301.0000     1262.0987     7464    2.99%
    300   301     1263.0000    79     1301.0000     1262.0987    13332    2.99%
*   400+  397                         1300.0000     1262.0987    29306    2.92%
    400   398     1263.7967    94     1300.0000     1262.0987    29306    2.92%
    500   485     1264.0000    76     1300.0000     1262.0987    38485    2.92%

Cover cuts applied:  45
Mixed integer rounding cuts applied:  8
Gomory fractional cuts applied:  5

Solution pool: 6 solutions saved.

MIP - Integer optimal solution:  Objective = 1.3000000000e+003
Solution time =   98.38 sec.  Iterations = 42873  Nodes = 511 (493)


Incumbent solution
Variable Name           Solution Value
Cmax                       1300.000000
X_1_8                         1.000000
X_2_28                        1.000000
X_3_2                         1.000000
X_4_9                         1.000000
X_5_14                        1.000000
X_6_34                        1.000000
X_7_26                        1.000000
X_8_16                        1.000000
X_9_40                        1.000000
X_10_18                       1.000000
X_11_8                        1.000000
X_12_36                       1.000000
X_13_35                       1.000000
X_14_34                       1.000000
X_15_10                       1.000000
X_16_21                       1.000000
X_17_9                        1.000000
X_18_20                       1.000000
X_19_32                       1.000000
X_20_36                       1.000000
X_21_36                       1.000000
X_22_15                       1.000000
X_23_24                       1.000000
X_24_35                       1.000000
X_25_25                       1.000000
X_26_27                       1.000000
X_27_20                       1.000000
X_28_28                       1.000000
X_29_19                       1.000000
X_30_32                       1.000000
X_31_19                       1.000000
X_32_23                       1.000000
X_33_6                        1.000000
X_34_15                       1.000000
X_35_11                       1.000000
X_36_18                       1.000000
X_37_4                        1.000000
X_38_35                       1.000000
X_39_39                       1.000000
X_40_24                       1.000000
X_41_1                        1.000000
X_42_28                       1.000000
X_43_8                        1.000000
X_44_20                       1.000000
X_45_30                       1.000000
X_46_29                       1.000000
X_47_2                        1.000000
X_48_34                       1.000000
X_49_37                       1.000000
X_50_36                       1.000000
X_51_4                        1.000000
X_52_15                       1.000000
X_53_21                       1.000000
X_54_18                       1.000000
X_55_32                       1.000000
X_56_12                       1.000000
X_57_38                       1.000000
X_58_38                       1.000000
X_59_2                        1.000000
X_60_21                       1.000000
X_61_29                       1.000000
X_62_32                       1.000000
X_63_37                       1.000000
X_64_4                        1.000000
X_65_7                        1.000000
X_66_11                       1.000000
X_67_19                       1.000000
X_68_27                       1.000000
X_69_6                        1.000000
X_70_8                        1.000000
X_71_20                       1.000000
X_72_26                       1.000000
X_73_35                       1.000000
X_74_22                       1.000000
X_75_36                       1.000000
X_76_37                       1.000000
X_77_29                       1.000000
X_78_27                       1.000000
X_79_10                       1.000000
X_80_20                       1.000000
X_81_16                       1.000000
X_82_37                       1.000000
X_83_21                       1.000000
X_84_12                       1.000000
X_85_36                       1.000000
X_86_19                       1.000000
X_87_40                       1.000000
X_88_15                       1.000000
X_89_5                        1.000000
X_90_12                       1.000000
X_91_24                       1.000000
X_92_34                       1.000000
X_93_18                       1.000000
X_94_14                       1.000000
X_95_33                       1.000000
X_96_20                       1.000000
X_97_9                        1.000000
X_98_23                       1.000000
X_99_26                       1.000000
X_100_28                      1.000000
X_101_19                      1.000000
X_102_32                      1.000000
X_103_3                       1.000000
X_104_17                      1.000000
X_105_28                      1.000000
X_106_6                       1.000000
X_107_4                       1.000000
X_108_34                      1.000000
X_109_3                       1.000000
X_110_33                      1.000000
X_111_7                       1.000000
X_112_4                       1.000000
X_113_34                      1.000000
X_114_5                       1.000000
X_115_28                      1.000000
X_116_10                      1.000000
X_117_23                      1.000000
X_118_3                       1.000000
X_119_28                      1.000000
X_120_9                       1.000000
X_121_40                      1.000000
X_122_20                      1.000000
X_123_14                      1.000000
X_124_38                      1.000000
X_125_27                      1.000000
X_126_28                      1.000000
X_127_7                       1.000000
X_128_38                      1.000000
X_129_13                      1.000000
X_130_37                      1.000000
X_131_15                      1.000000
X_132_18                      1.000000
X_133_26                      1.000000
X_134_5                       1.000000
X_135_6                       1.000000
X_136_25                      1.000000
X_137_9                       1.000000
X_138_1                       1.000000
X_139_24                      1.000000
X_140_12                      1.000000
X_141_8                       1.000000
X_142_34                      1.000000
X_143_16                      1.000000
X_144_11                      1.000000
X_145_38                      1.000000
X_146_34                      1.000000
X_147_39                      1.000000
X_148_29                      1.000000
X_149_3                       1.000000
X_150_33                      1.000000
X_151_38                      1.000000
X_152_2                       1.000000
X_153_5                       1.000000
X_154_22                      1.000000
X_155_15                      1.000000
X_156_15                      1.000000
X_157_11                      1.000000
X_158_32                      1.000000
X_159_36                      1.000000
X_160_12                      1.000000
X_161_13                      1.000000
X_162_8                       1.000000
X_163_19                      1.000000
X_164_36                      1.000000
X_165_21                      1.000000
X_166_12                      1.000000
X_167_30                      1.000000
X_168_2                       1.000000
X_169_39                      1.000000
X_170_20                      1.000000
X_171_28                      1.000000
X_172_17                      1.000000
X_173_35                      1.000000
X_174_13                      1.000000
X_175_29                      1.000000
X_176_27                      1.000000
X_177_12                      1.000000
X_178_26                      1.000000
X_179_1                       1.000000
X_180_30                      1.000000
X_181_11                      1.000000
X_182_30                      1.000000
X_183_16                      1.000000
X_184_23                      1.000000
X_185_18                      1.000000
X_186_31                      1.000000
X_187_4                       1.000000
X_188_1                       1.000000
X_189_16                      1.000000
X_190_34                      1.000000
X_191_30                      1.000000
X_192_37                      1.000000
X_193_35                      1.000000
X_194_19                      1.000000
X_195_14                      1.000000
X_196_7                       1.000000
X_197_34                      1.000000
X_198_4                       1.000000
X_199_37                      1.000000
X_200_5                       1.000000
X_201_22                      1.000000
X_202_36                      1.000000
X_203_40                      1.000000
X_204_40                      1.000000
X_205_20                      1.000000
X_206_7                       1.000000
X_207_30                      1.000000
X_208_5                       1.000000
X_209_31                      1.000000
X_210_13                      1.000000
X_211_1                       1.000000
X_212_12                      1.000000
X_213_25                      1.000000
X_214_40                      1.000000
X_215_30                      1.000000
X_216_25                      1.000000
X_217_25                      1.000000
X_218_7                       1.000000
X_219_22                      1.000000
X_220_18                      1.000000
X_221_35                      1.000000
X_222_10                      1.000000
X_223_6                       1.000000
X_224_19                      1.000000
X_225_26                      1.000000
X_226_3                       1.000000
X_227_2                       1.000000
X_228_13                      1.000000
X_229_25                      1.000000
X_230_30                      1.000000
X_231_22                      1.000000
X_232_33                      1.000000
X_233_36                      1.000000
X_234_27                      1.000000
X_235_39                      1.000000
X_236_12                      1.000000
X_237_13                      1.000000
X_238_17                      1.000000
X_239_1                       1.000000
X_240_8                       1.000000
X_241_29                      1.000000
X_242_23                      1.000000
X_243_12                      1.000000
X_244_32                      1.000000
X_245_33                      1.000000
X_246_8                       1.000000
X_247_33                      1.000000
X_248_1                       1.000000
X_249_17                      1.000000
X_250_37                      1.000000
X_251_14                      1.000000
X_252_33                      1.000000
X_253_32                      1.000000
X_254_24                      1.000000
X_255_31                      1.000000
X_256_39                      1.000000
X_257_23                      1.000000
X_258_39                      1.000000
X_259_1                       1.000000
X_260_7                       1.000000
X_261_4                       1.000000
X_262_23                      1.000000
X_263_27                      1.000000
X_264_22                      1.000000
X_265_4                       1.000000
X_266_23                      1.000000
X_267_2                       1.000000
X_268_3                       1.000000
X_269_30                      1.000000
X_270_24                      1.000000
X_271_21                      1.000000
X_272_4                       1.000000
X_273_32                      1.000000
X_274_7                       1.000000
X_275_28                      1.000000
X_276_18                      1.000000
X_277_12                      1.000000
X_278_6                       1.000000
X_279_5                       1.000000
X_280_30                      1.000000
X_281_37                      1.000000
X_282_37                      1.000000
X_283_5                       1.000000
X_284_22                      1.000000
X_285_35                      1.000000
X_286_9                       1.000000
X_287_38                      1.000000
X_288_26                      1.000000
X_289_39                      1.000000
X_290_14                      1.000000
X_291_13                      1.000000
X_292_36                      1.000000
X_293_19                      1.000000
X_294_13                      1.000000
X_295_19                      1.000000
X_296_11                      1.000000
X_297_29                      1.000000
X_298_26                      1.000000
X_299_17                      1.000000
X_300_6                       1.000000
X_301_7                       1.000000
X_302_38                      1.000000
X_303_15                      1.000000
X_304_14                      1.000000
X_305_20                      1.000000
X_306_9                       1.000000
X_307_8                       1.000000
X_308_10                      1.000000
X_309_3                       1.000000
X_310_10                      1.000000
X_311_18                      1.000000
X_312_15                      1.000000
X_313_5                       1.000000
X_314_11                      1.000000
X_315_26                      1.000000
X_316_24                      1.000000
X_317_9                       1.000000
X_318_6                       1.000000
X_319_13                      1.000000
X_320_29                      1.000000
X_321_17                      1.000000
X_322_13                      1.000000
X_323_29                      1.000000
X_324_16                      1.000000
X_325_17                      1.000000
X_326_1                       1.000000
X_327_14                      1.000000
X_328_35                      1.000000
X_329_38                      1.000000
X_330_12                      1.000000
X_331_5                       1.000000
X_332_29                      1.000000
X_333_40                      1.000000
X_334_35                      1.000000
X_335_31                      1.000000
X_336_13                      1.000000
X_337_31                      1.000000
X_338_13                      1.000000
X_339_3                       1.000000
X_340_12                      1.000000
X_341_25                      1.000000
X_342_21                      1.000000
X_343_11                      1.000000
X_344_40                      1.000000
X_345_17                      1.000000
X_346_27                      1.000000
X_347_35                      1.000000
X_348_31                      1.000000
X_349_17                      1.000000
X_350_38                      1.000000
X_351_7                       1.000000
X_352_31                      1.000000
X_353_25                      1.000000
X_354_3                       1.000000
X_355_27                      1.000000
X_356_16                      1.000000
X_357_11                      1.000000
X_358_34                      1.000000
X_359_22                      1.000000
X_360_38                      1.000000
X_361_33                      1.000000
X_362_24                      1.000000
X_363_11                      1.000000
X_364_11                      1.000000
X_365_23                      1.000000
X_366_27                      1.000000
X_367_8                       1.000000
X_368_10                      1.000000
X_369_33                      1.000000
X_370_5                       1.000000
X_371_1                       1.000000
X_372_27                      1.000000
X_373_2                       1.000000
X_374_33                      1.000000
X_375_33                      1.000000
X_376_14                      1.000000
X_377_2                       1.000000
X_378_17                      1.000000
X_379_14                      1.000000
X_380_6                       1.000000
X_381_22                      1.000000
X_382_7                       1.000000
X_383_11                      1.000000
X_384_21                      1.000000
X_385_20                      1.000000
X_386_24                      1.000000
X_387_6                       1.000000
X_388_10                      1.000000
X_389_21                      1.000000
X_390_34                      1.000000
X_391_25                      1.000000
X_392_36                      1.000000
X_393_2                       1.000000
X_394_1                       1.000000
X_395_23                      1.000000
X_396_19                      1.000000
X_397_16                      1.000000
X_398_8                       1.000000
X_399_10                      1.000000
X_400_7                       1.000000
X_401_9                       1.000000
X_402_26                      1.000000
X_403_25                      1.000000
X_404_21                      1.000000
X_405_40                      1.000000
X_406_8                       1.000000
X_407_35                      1.000000
X_408_5                       1.000000
X_409_32                      1.000000
X_410_23                      1.000000
X_411_2                       1.000000
X_412_23                      1.000000
X_413_15                      1.000000
X_414_29                      1.000000
X_415_18                      1.000000
X_416_32                      1.000000
X_417_17                      1.000000
X_418_40                      1.000000
X_419_15                      1.000000
X_420_36                      1.000000
X_421_11                      1.000000
X_422_31                      1.000000
X_423_37                      1.000000
X_424_17                      1.000000
X_425_8                       1.000000
X_426_30                      1.000000
X_427_22                      1.000000
X_428_26                      1.000000
X_429_31                      1.000000
X_430_1                       1.000000
X_431_32                      1.000000
X_432_16                      1.000000
X_433_39                      1.000000
X_434_39                      1.000000
X_435_21                      1.000000
X_436_10                      1.000000
X_437_37                      1.000000
X_438_30                      1.000000
X_439_24                      1.000000
X_440_6                       1.000000
X_441_27                      1.000000
X_442_37                      1.000000
X_443_20                      1.000000
X_444_39                      1.000000
X_445_18                      1.000000
X_446_21                      1.000000
X_447_17                      1.000000
X_448_21                      1.000000
X_449_9                       1.000000
X_450_14                      1.000000
X_451_16                      1.000000
X_452_7                       1.000000
X_453_38                      1.000000
X_454_31                      1.000000
X_455_22                      1.000000
X_456_35                      1.000000
X_457_40                      1.000000
X_458_24                      1.000000
X_459_10                      1.000000
X_460_19                      1.000000
X_461_25                      1.000000
X_462_5                       1.000000
X_463_16                      1.000000
X_464_27                      1.000000
X_465_10                      1.000000
X_466_18                      1.000000
X_467_4                       1.000000
X_468_26                      1.000000
X_469_4                       1.000000
X_470_29                      1.000000
X_471_20                      1.000000
X_472_39                      1.000000
X_473_15                      1.000000
X_474_3                       1.000000
X_475_24                      1.000000
X_476_16                      1.000000
X_477_15                      1.000000
X_478_28                      1.000000
X_479_6                       1.000000
X_480_31                      1.000000
X_481_9                       1.000000
X_482_9                       1.000000
X_483_6                       1.000000
X_484_39                      1.000000
X_485_23                      1.000000
X_486_33                      1.000000
X_487_3                       1.000000
X_488_2                       1.000000
X_489_22                      1.000000
X_490_14                      1.000000
X_491_40                      1.000000
X_492_25                      1.000000
X_493_38                      1.000000
X_494_4                       1.000000
X_495_29                      1.000000
X_496_3                       1.000000
X_497_31                      1.000000
X_498_28                      1.000000
X_499_9                       1.000000
X_500_24                      1.000000
All other variables in the range 1-20001 are 0.
